.Version 5.5.2  of ABINIT

 ABINIT is a project of the Universite Catholique de Louvain,
 Corning Inc. and other collaborators, see ~abinit/doc/developers/contributors.txt .
 Please read ~abinit/doc/users/acknowledgments.html for suggested
 acknowledgments of the ABINIT effort.

.Starting date : Thu  9 Dec 2010.

 herald :  WARNING -
  The starting date is more than 14 months after the initial release
  of this version of ABINIT, namely Jun 2007.
  Action : please, switch to a more recent version of ABINIT.
  Note that the use beyond 18 months after the release will not be tolerated.

- input  file    -> /storage/cataratto/guzzo/SiBulk/005.SpFunc_total/001.GW.bd14.allk/sp.in
- output file    -> /storage/cataratto/guzzo/SiBulk/005.SpFunc_total/001.GW.bd14.allk/sp.out
- root for input  files -> /storage/cataratto/guzzo/SiBulk/005.SpFunc_total/001.GW.bd14.allk/spi
- root for output files -> /storage/cataratto/guzzo/SiBulk/005.SpFunc_total/001.GW.bd14.allk/spo

 DATASET    2 : space group Fd -3 m (#227); Bravais cF (face-center cubic)
   intxc =         0  ionmov =         0    iscf =         5 xclevel =         1
  lmnmax =         2   lnmax =         2   mband =        25  mffmem =         1
P  mgfft =        20   mkmem =         1 mpssoang=         3     mpw =       142
  mqgrid =      3001   natom =         2    nfft =      8000    nkpt =         1
  nloalg =         4  nspden =         1 nspinor =         1  nsppol =         1
    nsym =        24  n1xccc =      2501  ntypat =         1  occopt =         1
  Rough estimation (10% accuracy) of disk space for files :

 DATASET    3 : space group Fd -3 m (#227); Bravais cF (face-center cubic)
   intxc =         0  ionmov =         0    iscf =         5 xclevel =         1
  lmnmax =         2   lnmax =         2   mband =       100  mffmem =         1
P  mgfft =        20   mkmem =         1 mpssoang=         3     mpw =       142
  mqgrid =      3001   natom =         2    nfft =      8000    nkpt =         1
  nloalg =         4  nspden =         1 nspinor =         1  nsppol =         1
    nsym =        24  n1xccc =      2501  ntypat =         1  occopt =         1
  Rough estimation (10% accuracy) of disk space for files :

 -outvars: echo values of preprocessed input variables --------
     acell    1.0217000000E+01  1.0217000000E+01  1.0217000000E+01 Bohr
       amu    2.80855000E+01
      bdgw3     1    4    1    4    1    4    1    4    1    4
                1    4    1    4    1    4    1    4    1    4
                1    4    1    4    1    4    1    4    1    4
                1    4    1    4    1    4    1    4
    diemac    1.20000000E+01
      ecut    8.00000000E+00 Hartree
   ecuteps2   6.00000000E+00 Hartree
   ecuteps3   0.00000000E+00 Hartree
  ecutsigx2   0.00000000E+00 Hartree
  ecutsigx3   6.00000000E+00 Hartree
   ecutwfn    6.00000000E+00 Hartree
     fftgw        11
 freqremax2   2.00000000E+00 Hartree
 freqremax3   0.00000000E+00 Hartree
 freqspmax2   0.00000000E+00 Hartree
 freqspmax3   3.00000000E+00 Hartree
    getscr2        0
    getscr3        2
    getkss         1
 gwcalctyp         2
      iscf         5
    istwfk      2
    jdtset      2    3
     kptgw3  -1.25000000E-01 -1.25000000E-01  0.00000000E+00
             -1.25000000E-01 -3.75000000E-01  0.00000000E+00
             -2.50000000E-01 -2.50000000E-01  0.00000000E+00
             -1.25000000E-01 -2.50000000E-01  1.25000000E-01
             -1.25000000E-01  3.75000000E-01  0.00000000E+00
             -2.50000000E-01  5.00000000E-01  0.00000000E+00
             -1.25000000E-01  5.00000000E-01  1.25000000E-01
             -3.75000000E-01 -3.75000000E-01  0.00000000E+00
             -2.50000000E-01 -3.75000000E-01  1.25000000E-01
             -1.25000000E-01 -3.75000000E-01  2.50000000E-01
             -1.25000000E-01  1.25000000E-01  0.00000000E+00
             -2.50000000E-01  2.50000000E-01  0.00000000E+00
             -3.75000000E-01  3.75000000E-01  0.00000000E+00
              5.00000000E-01  5.00000000E-01  0.00000000E+00
             -3.75000000E-01  5.00000000E-01  1.25000000E-01
             -2.50000000E-01  5.00000000E-01  2.50000000E-01
             -2.50000000E-01  0.00000000E+00  0.00000000E+00
              5.00000000E-01  0.00000000E+00  0.00000000E+00
              0.00000000E+00  0.00000000E+00  0.00000000E+00
P    mkmem         1
     natom         2
   nfreqim2       10
   nfreqim3        0
   nfreqre2       50
   nfreqre3        0
   nfreqsp2        0
   nfreqsp3       50
     nband2       25
     nband3      100
    ndtset         2
     ngfft        20      20      20
    nkptgw2        0
    nkptgw3       19
      nkpt         1
     nstep        10
      nsym        24
    ntypat         1
       occ2   2.000000  2.000000  2.000000  2.000000  0.000000  0.000000
              0.000000  0.000000  0.000000  0.000000  0.000000  0.000000
              0.000000  0.000000  0.000000  0.000000  0.000000  0.000000
              0.000000  0.000000  0.000000  0.000000  0.000000  0.000000
              0.000000
       occ3   2.000000  2.000000  2.000000  2.000000  0.000000  0.000000
              0.000000  0.000000  0.000000  0.000000  0.000000  0.000000
              0.000000  0.000000  0.000000  0.000000  0.000000  0.000000
              0.000000  0.000000  0.000000  0.000000  0.000000  0.000000
              0.000000  0.000000  0.000000  0.000000  0.000000  0.000000
              0.000000  0.000000  0.000000  0.000000  0.000000  0.000000
              0.000000  0.000000  0.000000  0.000000  0.000000  0.000000
              0.000000  0.000000  0.000000  0.000000  0.000000  0.000000
              0.000000  0.000000  0.000000  0.000000  0.000000  0.000000
              0.000000  0.000000  0.000000  0.000000  0.000000  0.000000
              0.000000  0.000000  0.000000  0.000000  0.000000  0.000000
              0.000000  0.000000  0.000000  0.000000  0.000000  0.000000
              0.000000  0.000000  0.000000  0.000000  0.000000  0.000000
              0.000000  0.000000  0.000000  0.000000  0.000000  0.000000
              0.000000  0.000000  0.000000  0.000000  0.000000  0.000000
              0.000000  0.000000  0.000000  0.000000  0.000000  0.000000
              0.000000  0.000000  0.000000  0.000000
 optdriver2        3
 optdriver3        4
     rprim    0.0000000000E+00  5.0000000000E-01  5.0000000000E-01
              5.0000000000E-01  0.0000000000E+00  5.0000000000E-01
              5.0000000000E-01  5.0000000000E-01  0.0000000000E+00
   spgroup       227
 symmorphi         0
    symrel    1  0  0   0  1  0   0  0  1       0 -1  1   0 -1  0   1 -1  0
             -1  0  0  -1  0  1  -1  1  0       0  1 -1   1  0 -1   0  0 -1
             -1  0  0  -1  1  0  -1  0  1       0 -1  1   1 -1  0   0 -1  0
              1  0  0   0  0  1   0  1  0       0  1 -1   0  0 -1   1  0 -1
             -1  0  1  -1  1  0  -1  0  0       0 -1  0   1 -1  0   0 -1  1
              1  0 -1   0  0 -1   0  1 -1       0  1  0   0  0  1   1  0  0
              1  0 -1   0  1 -1   0  0 -1       0 -1  0   0 -1  1   1 -1  0
             -1  0  1  -1  0  0  -1  1  0       0  1  0   1  0  0   0  0  1
              0  0 -1   0  1 -1   1  0 -1       1 -1  0   0 -1  1   0 -1  0
              0  0  1   1  0  0   0  1  0      -1  1  0  -1  0  0  -1  0  1
              0  0  1   0  1  0   1  0  0       1 -1  0   0 -1  0   0 -1  1
              0  0 -1   1  0 -1   0  1 -1      -1  1  0  -1  0  1  -1  0  0
    tolwfr    1.00000000E-10
     typat    1  1
    xangst    0.0000000000E+00  0.0000000000E+00  0.0000000000E+00
              1.3516508850E+00  1.3516508850E+00  1.3516508850E+00
     xcart    0.0000000000E+00  0.0000000000E+00  0.0000000000E+00
              2.5542500000E+00  2.5542500000E+00  2.5542500000E+00
      xred    0.0000000000E+00  0.0000000000E+00  0.0000000000E+00
              2.5000000000E-01  2.5000000000E-01  2.5000000000E-01
     znucl     14.00000

 chkinp: Checking input parameters for consistency, jdtset= 2.

 chkinp: Checking input parameters for consistency, jdtset= 3.

== DATASET  2 ==================================================================

 mkfilename : getkss/=0, take file _KSS from output of DATASET   1.

 SCREENING: Calculation of the susceptibility and dielectric matrices

 Based on a program developped by R.W. Godby, V. Olevano, G. Onida, and L. Reining.
 Incorporated in ABINIT by V. Olevano, G.-M. Rignanese, and M. Torrent.

 Real(R)+Recip(G) space primitive vectors, cartesian coordinates (Bohr,Bohr^-1):
 R(1)=  0.0000000  5.1085000  5.1085000  G(1)= -0.0978761  0.0978761  0.0978761
 R(2)=  5.1085000  0.0000000  5.1085000  G(2)=  0.0978761 -0.0978761  0.0978761
 R(3)=  5.1085000  5.1085000  0.0000000  G(3)=  0.0978761  0.0978761 -0.0978761
 Unit cell volume ucvol=  2.6663072E+02 bohr^3
 Angles (23,13,12)=  6.00000000E+01  6.00000000E+01  6.00000000E+01 degrees

 k       eigenvalues [eV]
  1         -5.89   4.57   5.08   5.08   7.86   9.61   9.61  10.21  12.45  14.12
            14.70  17.59  17.59  18.08  22.93  26.61  26.61  28.02  28.58  29.60
            32.45  32.67  32.67  37.48  37.48
  2         -4.59   0.56   4.04   4.29   8.10   9.52  10.38  11.35  15.18  15.36
            15.72  19.21  19.47  21.18  22.63  23.58  24.57  28.06  28.55  29.46
            30.70  31.64  33.47  35.01  36.08
  3         -5.07   2.38   3.98   3.98   6.95   8.97  11.67  11.67  13.87  15.00
            17.12  18.95  18.95  19.59  23.33  23.33  24.51  26.07  26.87  30.96
            32.29  33.28  33.28  35.44  35.44
  4         -4.82   1.59   3.13   4.45   8.30   9.77  10.07  11.41  13.73  16.18
            16.85  18.01  19.84  20.93  21.91  24.12  25.35  26.56  27.73  29.31
            31.03  32.14  33.84  34.82  35.59
  5         -3.96  -0.55   3.40   4.62   8.21   9.49   9.77  13.74  14.10  15.07
            17.08  18.37  20.35  20.46  22.76  24.63  26.65  28.10  28.54  28.61
            30.77  31.01  33.25  33.51  33.90
  6         -3.41  -0.53   2.30   3.66   7.34  10.32  11.62  11.85  16.07  16.58
            18.23  18.54  18.79  22.73  23.82  24.55  25.36  25.53  25.86  28.75
            29.86  31.21  31.41  33.60  35.12
  7         -3.25  -0.95   2.39   3.70   8.93   8.98  11.83  13.04  13.28  16.55
            17.60  18.25  21.36  21.60  24.07  24.39  25.45  26.83  27.08  28.06
            30.93  31.44  31.46  31.95  34.24
  8         -3.74   0.13   3.25   3.25   6.42   7.35  13.98  13.98  16.46  16.53
            19.09  19.09  19.35  21.34  21.89  22.67  22.67  24.51  29.39  29.70
            30.12  30.12  31.17  33.40  35.02
  9         -3.54  -0.09   2.47   3.09   7.78   8.48  11.65  13.92  16.13  16.15
            18.78  19.36  20.05  20.54  22.52  23.13  25.51  25.82  27.82  27.84
            29.39  30.19  32.15  33.65  34.17
 10         -3.00  -0.70   1.58   3.27   8.72  10.43  11.10  12.94  13.79  15.20
            20.09  20.13  20.44  22.30  22.50  24.44  25.14  25.93  27.20  27.96
            29.36  30.58  31.73  33.01  34.21
 11         -5.62   3.20   4.24   5.62   8.91   9.01   9.23  11.38  12.32  14.00
            15.44  17.05  18.25  20.46  23.69  23.90  26.82  27.31  27.79  29.14
[...]
 17         -5.36   1.93   5.14   5.14   7.87   9.40   9.40  12.70  13.19  13.19
            14.71  17.59  20.65  20.65  23.82  23.88  23.88  25.74  30.28  30.28
            32.43  32.43  33.90  34.89  36.23
 18         -3.79  -1.16   4.69   4.69   7.38   9.24   9.24  13.45  16.68  16.68
            17.11  17.30  17.30  18.65  25.30  25.82  27.79  27.79  27.98  27.98
            31.61  32.67  32.67  33.32  33.32
 19         -6.17   5.92   5.92   5.92   8.45   8.45   8.45   9.17  13.59  13.82
            13.82  17.11  17.11  17.11  20.99  29.29  29.29  29.29  30.44  30.44
            31.39  31.39  31.39  35.51  35.51

 test on the normalization of the wavefunctions
 min sum_G |a(n,k,G)| =  0.987660
 max sum_G |a(n,k,G)| =  0.999995
 test on the orthogonalization of the wavefunctions
 min sum_G a(n,k,G)* a(n",k,G) =  0.000000
 max sum_G a(n,k,G)* a(n",k,G) =  0.004203

 setmesh: FFT mesh size selected  =  12x 12x 12
          total number of points  =     1728

 number of q-points found       19
 find q-points q = k - k1 and translate in first BZ
 q-points [reduced coordinates]
    0.000010    0.000020    0.000030
    0.250000    0.250000    0.000000
    0.250000    0.125000    0.125000
    0.000000   -0.250000    0.000000
    0.500000    0.500000    0.250000
    0.250000   -0.125000    0.125000
    0.000000    0.125000   -0.375000
   -0.125000   -0.125000    0.000000
    0.375000    0.375000    0.000000
    0.500000    0.375000    0.125000
    0.000000    0.250000   -0.250000
    0.375000    0.000000    0.125000
    0.000000   -0.500000    0.000000
    0.250000   -0.375000    0.125000
   -0.375000   -0.375000    0.250000
   -0.250000   -0.375000   -0.625000
   -0.500000   -0.500000    0.000000
   -0.375000   -0.500000    0.125000
   -0.250000    0.500000    0.250000

 total number of electrons per unit cell =  7.9972
 average of density, n =  0.0300
 r_s =  1.9966
 omega_plasma = 16.7058 [eV]

 calculating chi0 at frequencies [eV] :
  1    0.000000E+00    0.000000E+00
  2    1.110669E+00    0.000000E+00
  3    2.221337E+00    0.000000E+00
  4    3.332006E+00    0.000000E+00
  5    4.442675E+00    0.000000E+00
  6    5.553344E+00    0.000000E+00
  7    6.664012E+00    0.000000E+00
  8    7.774681E+00    0.000000E+00
  9    8.885350E+00    0.000000E+00
 10    9.996019E+00    0.000000E+00
 11    1.110669E+01    0.000000E+00
 12    1.221736E+01    0.000000E+00
 13    1.332802E+01    0.000000E+00
 14    1.443869E+01    0.000000E+00
 15    1.554936E+01    0.000000E+00
 16    1.666003E+01    0.000000E+00
 17    1.777070E+01    0.000000E+00
 18    1.888137E+01    0.000000E+00
 19    1.999204E+01    0.000000E+00
 20    2.110271E+01    0.000000E+00
 21    2.221338E+01    0.000000E+00
 22    2.332404E+01    0.000000E+00
 23    2.443471E+01    0.000000E+00
 24    2.554538E+01    0.000000E+00
 25    2.665605E+01    0.000000E+00
 26    2.776672E+01    0.000000E+00
 27    2.887739E+01    0.000000E+00
 28    2.998805E+01    0.000000E+00
 29    3.109873E+01    0.000000E+00
 30    3.220939E+01    0.000000E+00
 31    3.332006E+01    0.000000E+00
 32    3.443073E+01    0.000000E+00
 33    3.554140E+01    0.000000E+00
 34    3.665207E+01    0.000000E+00
 35    3.776274E+01    0.000000E+00
 36    3.887341E+01    0.000000E+00
 37    3.998407E+01    0.000000E+00
 38    4.109474E+01    0.000000E+00
 39    4.220541E+01    0.000000E+00
 40    4.331608E+01    0.000000E+00
 41    4.442675E+01    0.000000E+00
 42    4.553742E+01    0.000000E+00
 43    4.664809E+01    0.000000E+00
 44    4.775876E+01    0.000000E+00
 45    4.886942E+01    0.000000E+00
 46    4.998009E+01    0.000000E+00
 47    5.109076E+01    0.000000E+00
 48    5.220143E+01    0.000000E+00
 49    5.331210E+01    0.000000E+00
 50    5.442277E+01    0.000000E+00
 51    0.000000E+00    1.596326E+00
 52    0.000000E+00    3.650261E+00
 53    0.000000E+00    6.292989E+00
 54    0.000000E+00    9.693292E+00
 55    0.000000E+00    1.406834E+01
 56    0.000000E+00    1.969757E+01
 57    0.000000E+00    2.694050E+01
 58    0.000000E+00    3.625972E+01
 59    0.000000E+00    4.825043E+01
 60    0.000000E+00    6.367846E+01
 dielectric constant =  14.0522
 dielectric constant without local fields =  15.6219

== DATASET  3 ==================================================================

 mkfilename : getscr/=0, take file _SCR from output of DATASET   2.

 mkfilename : getkss/=0, take file _KSS from output of DATASET   1.

 SIGMA: Calculation of the GW corrections

 Based on a program developped by R.W. Godby, V. Olevano, G. Onida, and L. Reining.
 Incorporated in ABINIT by V. Olevano, G.-M. Rignanese, and M. Torrent.

 Real(R)+Recip(G) space primitive vectors, cartesian coordinates (Bohr,Bohr^-1):
 R(1)=  0.0000000  5.1085000  5.1085000  G(1)= -0.0978761  0.0978761  0.0978761
 R(2)=  5.1085000  0.0000000  5.1085000  G(2)=  0.0978761 -0.0978761  0.0978761
 R(3)=  5.1085000  5.1085000  0.0000000  G(3)=  0.0978761  0.0978761 -0.0978761
 Unit cell volume ucvol=  2.6663072E+02 bohr^3
 Angles (23,13,12)=  6.00000000E+01  6.00000000E+01  6.00000000E+01 degrees

 k       eigenvalues [eV]
  1         -5.89   4.57   5.08   5.08   7.86   9.61   9.61  10.21  12.45  14.12
            14.70  17.59  17.59  18.08  22.93  26.61  26.61  28.02  28.58  29.60
            32.45  32.67  32.67  37.48  37.48  38.03  39.27  39.27  39.36  41.37
            42.50  43.20  44.65  46.45  46.68  46.80  46.80  48.29  48.29  49.08
            49.08  49.83  51.55  52.66  53.31  53.37  53.37  53.51  54.05  54.25
            54.25  55.24  55.67  57.84  57.84  61.84  63.08  63.08  63.08  65.69
            72.17  72.71  73.29  73.60  73.60  75.69  76.54  76.54  77.39  77.71
            78.88  78.88  81.11  81.43  82.96  84.51  84.51  85.73  86.80  87.18
            87.57  87.84  87.84  88.48  88.48  90.55  91.07  91.07  91.30  92.01
            92.49  92.49  92.98  95.03  95.05  95.05  96.82  97.36  97.36  97.79

  2         -4.59   0.56   4.04   4.29   8.10   9.52  10.38  11.35  15.18  15.36
            15.72  19.21  19.47  21.18  22.63  23.58  24.57  28.06  28.55  29.46
            30.70  31.64  33.47  35.01  36.08  36.25  36.51  37.64  39.07  39.37
            40.99  41.88  43.15  44.11  44.82  45.24  47.19  48.63  48.73  49.12
            50.25  50.91  52.26  53.09  53.63  55.38  56.06  57.50  58.39  58.59
            60.29  60.62  62.61  63.36  63.40  64.70  65.51  66.22  66.52  67.52
            67.96  68.04  68.46  69.72  70.70  71.00  72.27  73.46  73.91  75.07
            76.10  77.38  78.77  78.91  79.52  81.66  81.85  82.41  83.58  84.68
            85.23  85.99  86.60  86.88  87.95  88.27  89.16  89.80  90.80  92.00
            92.63  93.49  93.96  95.34  95.80  96.34  96.64  97.77  98.09  98.87

[...]

 19         -6.17   5.92   5.92   5.92   8.45   8.45   8.45   9.17  13.59  13.82
            13.82  17.11  17.11  17.11  20.99  29.29  29.29  29.29  30.44  30.44
            31.39  31.39  31.39  35.51  35.51  35.51  40.83  41.42  41.42  41.42
            45.29  45.29  46.91  46.91  47.40  47.40  47.40  48.93  50.05  50.05
            50.05  50.42  51.18  51.18  51.18  51.43  51.43  51.43  52.72  52.72
            52.72  56.69  57.65  57.65  57.65  57.75  57.75  57.75  58.21  73.12
            73.12  73.19  76.01  76.01  76.01  76.11  79.44  79.44  79.44  80.10
            80.10  80.15  80.15  80.15  82.44  84.27  84.27  84.27  88.27  88.27
            88.27  89.76  89.76  89.76  89.83  89.83  89.83  90.02  90.02  93.57
            93.57  94.07  94.07  94.07  94.55  97.13  97.13  97.13  98.27  98.27

 test on the normalization of the wavefunctions
 min sum_G |a(n,k,G)| =  0.650837
 max sum_G |a(n,k,G)| =  0.999995
 test on the orthogonalization of the wavefunctions
 min sum_G a(n,k,G)* a(n",k,G) =  0.000000
 max sum_G a(n,k,G)* a(n",k,G) =  0.295526

 setmesh: FFT mesh size selected  =  12x 12x 12
          total number of points  =     1728

[...]

 total number of electrons per unit cell =    7.9972
 average of density, n =  0.029993
 r_s =    1.9966
 omega_plasma =   16.7058 [eV]

 SIGMA fundamental parameters:
 CONTOUR DEFORMATION
 number of plane-waves for SigmaX                  169
 number of plane-waves for SigmaC and W            169
 number of plane-waves for wavefunctions           169
 number of bands                                   100
 number of independent spin polarizations            1
 number of k-points in IBZ                          19
 number of q-points in IBZ                          19
 number of symmetry operations                      24
 number of k-points in BZ                          256
 number of q-points in BZ                          256
 number of omega for Sigma on real axis              9
 deltae [eV]                                      0.25
 number of omega for Sigma on real axis             50
 max omega for Sigma on real axis  [eV]          81.63

 EPSILON^-1 parameters (SCR file):
 dimension of the eps^-1 matrix                    169
 number of plane-waves for wavefunctions           169
 number of bands                                    25
 number of q-points in IBZ                          19
 number of frequencies                              60
 number of real frequencies                         50
 number of imag frequencies                         10

 matrix elements of self-energy operator (all in [eV])

 Perturbative Calculation

 k =   -0.125  -0.125   0.000
 Band     E0 <VxcLDA>   SigX SigC(E0)      Z dSigC/dE  Sig(E)    E-E0       E
    1  -5.894 -10.458 -17.201   6.741   0.650  -0.538 -10.460  -0.001  -5.895
    2   4.569 -11.161 -12.765   1.257   0.753  -0.329 -11.422  -0.261   4.308
    3   5.084 -10.902 -12.279   1.038   0.760  -0.316 -11.160  -0.257   4.827
    4   5.084 -10.902 -12.279   1.038   0.760  -0.316 -11.160  -0.257   4.827

[...]

 k =    0.000   0.000   0.000
 Band     E0 <VxcLDA>   SigX SigC(E0)      Z dSigC/dE  Sig(E)    E-E0       E
    1  -6.171 -10.439 -17.295   6.882   0.641  -0.560 -10.423   0.016  -6.155
    2   5.915 -11.242 -12.433   0.821   0.765  -0.307 -11.525  -0.283   5.632
    3   5.915 -11.242 -12.433   0.821   0.765  -0.307 -11.525  -0.283   5.632
    4   5.915 -11.242 -12.433   0.821   0.765  -0.307 -11.525  -0.283   5.632

== END DATASET(S) ==============================================================

 -outvars: echo values of variables after computation  --------
     acell    1.0217000000E+01  1.0217000000E+01  1.0217000000E+01 Bohr
       amu    2.80855000E+01
      bdgw3     1    4    1    4    1    4    1    4    1    4
                1    4    1    4    1    4    1    4    1    4
                1    4    1    4    1    4    1    4    1    4
                1    4    1    4    1    4    1    4
    diemac    1.20000000E+01
      ecut    8.00000000E+00 Hartree
   ecuteps2   6.00000000E+00 Hartree
   ecuteps3   0.00000000E+00 Hartree
  ecutsigx2   0.00000000E+00 Hartree
  ecutsigx3   6.00000000E+00 Hartree
   ecutwfn    6.00000000E+00 Hartree
    etotal2   0.0000000000E+00
    etotal3   0.0000000000E+00
     fftgw        11
     fcart2   0.0000000000E+00  0.0000000000E+00  0.0000000000E+00
              0.0000000000E+00  0.0000000000E+00  0.0000000000E+00
     fcart3   0.0000000000E+00  0.0000000000E+00  0.0000000000E+00
              0.0000000000E+00  0.0000000000E+00  0.0000000000E+00
 freqremax2   2.00000000E+00 Hartree
 freqremax3   0.00000000E+00 Hartree
 freqspmax2   0.00000000E+00 Hartree
 freqspmax3   3.00000000E+00 Hartree
    getscr2        0
    getscr3        2
    getkss         1
 gwcalctyp         2
      iscf         5
    istwfk      2
    jdtset      2    3
     kptgw3  -1.25000000E-01 -1.25000000E-01  0.00000000E+00
             -1.25000000E-01 -3.75000000E-01  0.00000000E+00
             -2.50000000E-01 -2.50000000E-01  0.00000000E+00
             -1.25000000E-01 -2.50000000E-01  1.25000000E-01
             -1.25000000E-01  3.75000000E-01  0.00000000E+00
             -2.50000000E-01  5.00000000E-01  0.00000000E+00
             -1.25000000E-01  5.00000000E-01  1.25000000E-01
             -3.75000000E-01 -3.75000000E-01  0.00000000E+00
             -2.50000000E-01 -3.75000000E-01  1.25000000E-01
             -1.25000000E-01 -3.75000000E-01  2.50000000E-01
             -1.25000000E-01  1.25000000E-01  0.00000000E+00
             -2.50000000E-01  2.50000000E-01  0.00000000E+00
             -3.75000000E-01  3.75000000E-01  0.00000000E+00
              5.00000000E-01  5.00000000E-01  0.00000000E+00
             -3.75000000E-01  5.00000000E-01  1.25000000E-01
             -2.50000000E-01  5.00000000E-01  2.50000000E-01
             -2.50000000E-01  0.00000000E+00  0.00000000E+00
              5.00000000E-01  0.00000000E+00  0.00000000E+00
              0.00000000E+00  0.00000000E+00  0.00000000E+00
P    mkmem         1
     natom         2
   nfreqim2       10
   nfreqim3        0
   nfreqre2       50
   nfreqre3        0
   nfreqsp2        0
   nfreqsp3       50
     nband2       25
     nband3      100
    ndtset         2
     ngfft        20      20      20
    nkptgw2        0
    nkptgw3       19
      nkpt         1
     nstep        10
      nsym        24
    ntypat         1
       occ2   2.000000  2.000000  2.000000  2.000000  0.000000  0.000000
              0.000000  0.000000  0.000000  0.000000  0.000000  0.000000
              0.000000  0.000000  0.000000  0.000000  0.000000  0.000000
              0.000000  0.000000  0.000000  0.000000  0.000000  0.000000
              0.000000
       occ3   2.000000  2.000000  2.000000  2.000000  0.000000  0.000000
              0.000000  0.000000  0.000000  0.000000  0.000000  0.000000
              0.000000  0.000000  0.000000  0.000000  0.000000  0.000000
              0.000000  0.000000  0.000000  0.000000  0.000000  0.000000
              0.000000  0.000000  0.000000  0.000000  0.000000  0.000000
              0.000000  0.000000  0.000000  0.000000  0.000000  0.000000
              0.000000  0.000000  0.000000  0.000000  0.000000  0.000000
              0.000000  0.000000  0.000000  0.000000  0.000000  0.000000
              0.000000  0.000000  0.000000  0.000000  0.000000  0.000000
              0.000000  0.000000  0.000000  0.000000  0.000000  0.000000
              0.000000  0.000000  0.000000  0.000000  0.000000  0.000000
              0.000000  0.000000  0.000000  0.000000  0.000000  0.000000
              0.000000  0.000000  0.000000  0.000000  0.000000  0.000000
              0.000000  0.000000  0.000000  0.000000  0.000000  0.000000
              0.000000  0.000000  0.000000  0.000000  0.000000  0.000000
              0.000000  0.000000  0.000000  0.000000  0.000000  0.000000
              0.000000  0.000000  0.000000  0.000000
 optdriver2        3
 optdriver3        4
     rprim    0.0000000000E+00  5.0000000000E-01  5.0000000000E-01
              5.0000000000E-01  0.0000000000E+00  5.0000000000E-01
              5.0000000000E-01  5.0000000000E-01  0.0000000000E+00
   spgroup       227
    strten2   0.0000000000E+00  0.0000000000E+00  0.0000000000E+00
              0.0000000000E+00  0.0000000000E+00  0.0000000000E+00
    strten3   0.0000000000E+00  0.0000000000E+00  0.0000000000E+00
              0.0000000000E+00  0.0000000000E+00  0.0000000000E+00
 symmorphi         0
    symrel    1  0  0   0  1  0   0  0  1       0 -1  1   0 -1  0   1 -1  0
             -1  0  0  -1  0  1  -1  1  0       0  1 -1   1  0 -1   0  0 -1
             -1  0  0  -1  1  0  -1  0  1       0 -1  1   1 -1  0   0 -1  0
              1  0  0   0  0  1   0  1  0       0  1 -1   0  0 -1   1  0 -1
             -1  0  1  -1  1  0  -1  0  0       0 -1  0   1 -1  0   0 -1  1
              1  0 -1   0  0 -1   0  1 -1       0  1  0   0  0  1   1  0  0
              1  0 -1   0  1 -1   0  0 -1       0 -1  0   0 -1  1   1 -1  0
             -1  0  1  -1  0  0  -1  1  0       0  1  0   1  0  0   0  0  1
              0  0 -1   0  1 -1   1  0 -1       1 -1  0   0 -1  1   0 -1  0
              0  0  1   1  0  0   0  1  0      -1  1  0  -1  0  0  -1  0  1
              0  0  1   0  1  0   1  0  0       1 -1  0   0 -1  0   0 -1  1
              0  0 -1   1  0 -1   0  1 -1      -1  1  0  -1  0  1  -1  0  0
    tolwfr    1.00000000E-10
     typat    1  1
    xangst    0.0000000000E+00  0.0000000000E+00  0.0000000000E+00
              1.3516508850E+00  1.3516508850E+00  1.3516508850E+00
     xcart    0.0000000000E+00  0.0000000000E+00  0.0000000000E+00
              2.5542500000E+00  2.5542500000E+00  2.5542500000E+00
      xred    0.0000000000E+00  0.0000000000E+00  0.0000000000E+00
              2.5000000000E-01  2.5000000000E-01  2.5000000000E-01
     znucl     14.00000

- Timing analysis has been suppressed with timopt=0

-

 Calculation completed.
.Delivered   47 WARNINGs and   2 COMMENTs to log file.